(set-option :print-success false)
(set-logic QF_SO)
(set-info :status unsat)
(declare-fun x ( ) Int)
(declare-fun y1 ( ) Int)
(declare-fun y2 ( ) Int)
(declare-fun z ( ) Int)
(assert (or (<= x y1) (<= x y2)))
(assert (<= y1 z))
(assert (<= y2 z))
(assert (<= z x))
(check-sat)
